\ This file has been generated by DOcplex
\ ENCODING=ISO-8859-1
\Problem name: random_problem.lp

Minimize
 obj: - 666 x0 - 333 x1 - 670 x2 - 335 x3 + 980 x4 + 490 x5 + [ 19744 x0^2
      + 19744 x0*x1 - 1248 x0*x2 - 624 x0*x3 + 9984 x0*x4 + 4992 x0*x5
      + 4936 x1^2 - 624 x1*x2 - 312 x1*x3 + 4992 x1*x4 + 2496 x1*x5 + 9168 x2^2
      + 9168 x2*x3 + 3520 x2*x4 + 1760 x2*x5 + 2292 x3^2 + 1760 x3*x4
      + 880 x3*x5 + 6336 x4^2 + 6336 x4*x5 + 1584 x5^2 ]/2
Subject To
 c0: 2 x0 + x1 + 2 x2 + x3 + 2 x4 + x5 = 3

Bounds
 0 <= x0 <= 1
 0 <= x1 <= 1
 0 <= x2 <= 1
 0 <= x3 <= 1
 0 <= x4 <= 1
 0 <= x5 <= 1

Binaries
 x0 x1 x2 x3 x4 x5
End
